Version identifier: 12.10.0.0 | 2019-11-26 | 843d4de
CPXPARAM_WorkMem                                 28672
Tried aggregator 2 times.
MIP Presolve modified 42 coefficients.
Aggregator did 45 substitutions.
Reduced MIP has 199 rows, 240 columns, and 968 nonzeros.
Reduced MIP has 240 binaries, 0 generals, 0 SOSs, and 0 indicators.
Presolve time = 0,00 sec. (1,28 ticks)
Found incumbent of value 960,000000 after 0,00 sec. (1,94 ticks)
Probing time = 0,00 sec. (0,37 ticks)
Tried aggregator 1 time.
Detecting symmetries...
MIP Presolve eliminated 32 rows and 0 columns.
MIP Presolve added 64 rows and 0 columns.
Reduced MIP has 231 rows, 240 columns, and 1000 nonzeros.
Reduced MIP has 240 binaries, 0 generals, 0 SOSs, and 0 indicators.
Presolve time = 0,00 sec. (1,18 ticks)
Probing time = 0,00 sec. (0,36 ticks)
Clique table members: 683.
MIP emphasis: balance optimality and feasibility.
MIP search method: dynamic search.
Parallel mode: deterministic, using up to 16 threads.
Root relaxation solution time = 0,00 sec. (1,03 ticks)

        Nodes                                         Cuts/
   Node  Left     Objective  IInf  Best Integer    Best Bound    ItCnt     Gap

*     0+    0                          960,0000        0,0000           100,00%
*     0+    0                          541,0000        0,0000           100,00%
      0     0      250,3167   127      541,0000      250,3167      126   53,73%
      0     0      252,9571   127      541,0000     Cuts: 157      189   53,24%
      0     0      254,1643   127      541,0000     Cuts: 157      229   53,02%
      0     0      255,9286   127      541,0000     Cuts: 143      313   52,69%
      0     0      256,5612   127      541,0000     Cuts: 120      352   52,58%
      0     0      257,7897   127      541,0000     Cuts: 157      391   52,35%
      0     0      258,5321   127      541,0000     Cuts: 123      446   52,21%
      0     0      259,3891   127      541,0000     Cuts: 150      507   52,05%
      0     0      260,3505   127      541,0000      Cuts: 88      567   51,88%
      0     0      261,0011   127      541,0000      Cuts: 82      650   51,76%
      0     0      261,4835   127      541,0000     Cuts: 118      702   51,67%
      0     0      261,8515   127      541,0000  ZeroHalf: 21      757   51,60%
      0     0      262,0527   127      541,0000  ZeroHalf: 18      810   51,56%
      0     0      262,3475   127      541,0000     Cuts: 114      877   51,51%
*     0+    0                          497,0000      262,3475            47,21%
      0     0      262,9081   127      497,0000      Cuts: 83      996   38,54%
      0     0      263,2469   127      497,0000      Cuts: 37     1068   38,54%
      0     2      263,2469   239      497,0000      305,4333     1068   38,54%
Elapsed time = 0,31 sec. (163,34 ticks, tree = 0,02 MB, solutions = 3)
   4436  1984      489,0833    15      497,0000      430,9322   111764   13,29%

Performing restart 1

Repeating presolve.
Tried aggregator 1 time.
Reduced MIP has 231 rows, 240 columns, and 1000 nonzeros.
Reduced MIP has 240 binaries, 0 generals, 0 SOSs, and 0 indicators.
Presolve time = 0,00 sec. (0,59 ticks)
Tried aggregator 1 time.
Reduced MIP has 231 rows, 240 columns, and 1000 nonzeros.
Reduced MIP has 240 binaries, 0 generals, 0 SOSs, and 0 indicators.
Presolve time = 0,00 sec. (0,84 ticks)
Represolve time = 0,01 sec. (9,40 ticks)
   6390     0      265,5865   239      497,0000      Cuts: 33   188473    7,15%
   6390     0      270,3939   239      497,0000      Cuts: 40   188595    7,15%
   6390     0      273,7984   239      497,0000      Cuts: 52   188695    7,15%
   6390     0      277,0411   239      497,0000      Cuts: 39   188845    7,15%
   6390     0      278,9242   239      497,0000      Cuts: 77   188986    7,15%
   6390     2      278,9242   237      497,0000      461,4780   188986    7,15%
   6424    14      373,9547   184      497,0000      461,4780   191559    7,15%
   7955   974      394,7759   206      497,0000      461,4780   254887    7,15%
   9382  2124      468,7448   176      497,0000      461,4780   334248    7,15%
  11133  3334      485,9853   162      497,0000      461,4780   416949    7,15%
  12907  4569      431,0832   179      497,0000      461,4780   519261    7,15%

Performing restart 2

Repeating presolve.
Tried aggregator 1 time.
Reduced MIP has 231 rows, 240 columns, and 1000 nonzeros.
Reduced MIP has 240 binaries, 0 generals, 0 SOSs, and 0 indicators.
Presolve time = 0,00 sec. (0,59 ticks)
Tried aggregator 1 time.
Reduced MIP has 231 rows, 240 columns, and 1000 nonzeros.
Reduced MIP has 240 binaries, 0 generals, 0 SOSs, and 0 indicators.
Presolve time = 0,00 sec. (0,84 ticks)
Represolve time = 0,03 sec. (24,70 ticks)
  14446     0      281,3758   237      497,0000      Cuts: 50   616276    7,15%
  14446     0      282,1570   237      497,0000      Cuts: 29   616374    7,15%
  14446     0      282,8580   237      497,0000      Cuts: 46   616474    7,15%
  14446     0      283,1610   237      497,0000      Cuts: 55   616547    7,15%
  14446     0      283,5029   237      497,0000      Cuts: 46   616647    7,15%
  14446     0      283,6388   237      497,0000      Cuts: 63   616715    7,15%
  14446     2      283,6388   239      497,0000      461,4780   616715    7,15%
  16851  1055      489,5396   115      497,0000      461,4780   692142    7,15%

Clique cuts applied:  51
Cover cuts applied:  331
Flow cuts applied:  1
Mixed integer rounding cuts applied:  96
Zero-half cuts applied:  82
Lift and project cuts applied:  5
Gomory fractional cuts applied:  29

Root node processing (before b&c):
  Real time             =    0,31 sec. (162,94 ticks)
Parallel b&c, 16 threads:
  Real time             =    4,08 sec. (3144,44 ticks)
  Sync time (average)   =    1,03 sec.
  Wait time (average)   =    0,02 sec.
                          ------------
Total (root+branch&cut) =    4,39 sec. (3307,39 ticks)
